50 20
7 11
8 19
5 17
5 17
1 7
3 12
7 3
3 7
4 1
9 7
3 7
10 17
6 16
9 13
6 17
3 1
4 5
2 19
10 13
9 16
2 19
7 16
1 12
4 7
10 1
10 1
1 5
8 3
2 16
2 9
1 9
1 17
6 18
10 13
4 18
6 11
2 19
5 19
8 8
10 12
10 4
6 2
7 15
7 5
10 17
4 13
3 3
8 18
10 8
